WARNING: for repeatability, setting FPU to use double precision
============================[ Problem Statistics ]=============================
|                                                                             |
|  Number of variables:            20                                         |
|  Number of clauses:              45                                         |
|  Parse time:                   0.00 s                                       |
|                                                                             |
============================[ Search Statistics ]==============================
| Conflicts |          ORIGINAL         |          LEARNT          | Progress |
|           |    Vars  Clauses Literals |    Limit  Clauses Lit/Cl |          |
===============================================================================
===============================================================================
restarts              : 1
conflicts             : 31             (13958 /sec)
decisions             : 35             (0.00 % random) (15759 /sec)
propagations          : 286            (128771 /sec)
conflict literals     : 110            (12.00 % deleted)
Memory used           : 11.00 MB
CPU time              : 0.002221 s

UNSATISFIABLE
